1
1000
60
495 1
493 1
485 1
478 1
477 1
462 1
461 1
459 1
456 1
451 1
429 1
426 1
414 1
405 1
391 1
378 1
375 1
371 1
369 1
368 1
367 1
361 1
357 1
354 1
347 1
345 1
332 1
316 1
298 1
297 1
293 1
293 1
281 1
281 1
278 1
278 1
277 1
277 1
275 1
273 1
270 1
268 1
265 1
265 1
263 1
263 1
262 1
261 1
261 1
258 1
258 1
257 1
256 1
255 1
255 1
254 1
254 1
252 1
250 1
250 1
